g3 0 1 0	# problem d7n5R1R6d05d1
 5 6 1 0 1	# vars, constraints, objectives, ranges, eqns
 4 1	# nonlinear constraints, objectives
 0 0	# network constraints: nonlinear, linear
 5 5 5	# nonlinear vars in constraints, objectives, both
 0 0 0 1	# linear network variables; functions; arith, flags
 0 0 0 0 0	# discrete variables: binary, integer, nonlinear (b,c,o)
 30 5	# nonzeros in Jacobian, gradients
 0 0	# max name lengths: constraints, variables
 0 0 0 0 0	# common exprs: b,c,o,c1,o1
b
0 0.78 2.39
0 0.38 2.94
0 0.26 2.91
0 0.91 2.13
0 0.22 2.75
r
2 119.062
2 371.089
2 1205.59
2 3500.15
4 51.963
2 20.906
C0
o54
6
o2
o2
n4.68
v0
v0
o2
o2
n5.68
v0
v2
o2
o2
n7.22
v0
v3
o2
o2
n8.34
v2
v2
o16
o2
o2
n3.29
v2
v4
o2
o2
n9.5
v3
v4
C1
o54
23
o16
o2
o2
n4.01
v0
v0
o2
o2
n7.8
v0
v2
o2
o2
n2.43
v0
v3
o2
o2
n9.05
v2
v2
o2
o2
n7.13
v2
v4
o2
o2
n4.07
v3
v4
o16
o2
o2
o2
n1.2
v0
v0
v0
o2
o2
o2
n3.56
v0
v0
v1
o2
o2
o2
n8.36
v0
v0
v3
o2
o2
o2
n8.66
v0
v1
v2
o2
o2
o2
n7.41
v0
v2
v2
o2
o2
o2
n3.15
v0
v3
v3
o2
o2
o2
n3.65
v0
v3
v4
o2
o2
o2
n8.9
v0
v4
v4
o2
o2
o2
n1.46
v1
v1
v1
o16
o2
o2
o2
n1.54
v1
v1
v2
o2
o2
o2
n7.05
v1
v1
v3
o2
o2
o2
n7.57
v1
v2
v2
o2
o2
o2
n5.41
v1
v2
v3
o2
o2
o2
n9.71
v1
v2
v4
o16
o2
o2
o2
n0.6
v1
v3
v4
o2
o2
o2
n1.87
v3
v3
v4
o2
o2
o2
n3.43
v4
v4
v4
C2
o54
63
o2
o2
n4.31
v0
v0
o2
o2
n0.57
v0
v2
o2
o2
n1.04
v0
v3
o2
o2
n6.58
v2
v2
o2
o2
n4.95
v2
v4
o2
o2
n9.4
v3
v4
o2
o2
o2
n1.84
v0
v0
v0
o2
o2
o2
n5.43
v0
v0
v1
o2
o2
o2
n5.2
v0
v0
v3
o16
o2
o2
o2
n9.34
v0
v1
v2
o2
o2
o2
n8.91
v0
v2
v2
o2
o2
o2
n1.82
v0
v3
v3
o2
o2
o2
n9.04
v0
v3
v4
o16
o2
o2
o2
n7.55
v0
v4
v4
o2
o2
o2
n8.54
v1
v1
v1
o2
o2
o2
n0.13
v1
v1
v2
o2
o2
o2
n4
v1
v1
v3
o2
o2
o2
n5.5
v1
v2
v2
o2
o2
o2
n8.51
v1
v2
v3
o16
o2
o2
o2
n0.25
v1
v2
v4
o2
o2
o2
n9.75
v1
v3
v4
o2
o2
o2
n6.69
v3
v3
v4
o2
o2
o2
n7.26
v4
v4
v4
o2
o2
o2
o2
n0.9
v0
v0
v0
v0
o2
o2
o2
o2
n8.04
v0
v0
v0
v1
o2
o2
o2
o2
n5.59
v0
v0
v0
v3
o2
o2
o2
o2
n4.48
v0
v0
v0
v4
o2
o2
o2
o2
n4.21
v0
v0
v1
v1
o2
o2
o2
o2
n3.78
v0
v0
v1
v3
o2
o2
o2
o2
n7.84
v0
v0
v1
v4
o2
o2
o2
o2
n2.8
v0
v0
v2
v4
o2
o2
o2
o2
n1.55
v0
v0
v3
v3
o2
o2
o2
o2
n7.48
v0
v0
v4
v4
o2
o2
o2
o2
n1.67
v0
v1
v1
v3
o16
o2
o2
o2
o2
n0.85
v0
v1
v2
v4
o2
o2
o2
o2
n0.59
v0
v1
v3
v3
o16
o2
o2
o2
o2
n8.81
v0
v1
v4
v4
o2
o2
o2
o2
n0.63
v0
v2
v2
v3
o2
o2
o2
o2
n7.49
v0
v2
v2
v4
o2
o2
o2
o2
n3.61
v0
v2
v3
v3
o2
o2
o2
o2
n1.55
v0
v4
v4
v4
o2
o2
o2
o2
n7.52
v1
v1
v1
v1
o2
o2
o2
o2
n7.31
v1
v1
v1
v2
o2
o2
o2
o2
n7.08
v1
v1
v1
v3
o2
o2
o2
o2
n9.7
v1
v1
v1
v4
o2
o2
o2
o2
n9.57
v1
v1
v2
v3
o2
o2
o2
o2
n7.41
v1
v1
v2
v4
o2
o2
o2
o2
n2.51
v1
v1
v3
v4
o2
o2
o2
o2
n4.84
v1
v1
v4
v4
o2
o2
o2
o2
n4.91
v1
v2
v2
v2
o16
o2
o2
o2
o2
n5.4
v1
v2
v2
v3
o2
o2
o2
o2
n8.44
v1
v2
v3
v3
o16
o2
o2
o2
o2
n4.8
v1
v2
v3
v4
o2
o2
o2
o2
n0.25
v1
v3
v3
v3
o2
o2
o2
o2
n8.67
v1
v3
v3
v4
o2
o2
o2
o2
n3.86
v1
v3
v4
v4
o2
o2
o2
o2
n3.5
v1
v4
v4
v4
o16
o2
o2
o2
o2
n9.84
v2
v2
v3
v3
o2
o2
o2
o2
n4.86
v2
v3
v4
v4
o2
o2
o2
o2
n2.71
v2
v4
v4
v4
o2
o2
o2
o2
n2.13
v3
v3
v3
v3
o2
o2
o2
o2
n5.66
v3
v3
v3
v4
o2
o2
o2
o2
n3.66
v3
v4
v4
v4
C3
o54
129
o2
o2
n5.7
v0
v0
o2
o2
n2.37
v0
v2
o2
o2
n7.27
v0
v3
o2
o2
n4.78
v2
v2
o2
o2
n6.93
v2
v4
o2
o2
n5.1
v3
v4
o2
o2
o2
n4.93
v0
v0
v0
o2
o2
o2
n6.16
v0
v0
v1
o2
o2
o2
n1.7
v0
v0
v3
o2
o2
o2
n6.85
v0
v1
v2
o16
o2
o2
o2
n3.17
v0
v2
v2
o2
o2
o2
n2.7
v0
v3
v3
o2
o2
o2
n8.17
v0
v3
v4
o2
o2
o2
n4.88
v0
v4
v4
o2
o2
o2
n1.94
v1
v1
v1
o2
o2
o2
n4.18
v1
v1
v2
o2
o2
o2
n4.8
v1
v1
v3
o16
o2
o2
o2
n1.64
v1
v2
v2
o16
o2
o2
o2
n0.04
v1
v2
v3
o2
o2
o2
n2.3
v1
v2
v4
o2
o2
o2
n0.21
v1
v3
v4
o2
o2
o2
n3.64
v3
v3
v4
o16
o2
o2
o2
n5.61
v4
v4
v4
o2
o2
o2
o2
n5.31
v0
v0
v0
v0
o2
o2
o2
o2
n4.36
v0
v0
v0
v1
o2
o2
o2
o2
n1.68
v0
v0
v0
v3
o2
o2
o2
o2
n7.86
v0
v0
v0
v4
o2
o2
o2
o2
n3.81
v0
v0
v1
v1
o2
o2
o2
o2
n0.87
v0
v0
v1
v3
o2
o2
o2
o2
n2.31
v0
v0
v1
v4
o2
o2
o2
o2
n0.12
v0
v0
v2
v4
o2
o2
o2
o2
n7.83
v0
v0
v3
v3
o2
o2
o2
o2
n0.71
v0
v0
v4
v4
o2
o2
o2
o2
n0.51
v0
v1
v1
v3
o2
o2
o2
o2
n4.09
v0
v1
v2
v4
o2
o2
o2
o2
n5.15
v0
v1
v3
v3
o2
o2
o2
o2
n7.04
v0
v1
v4
v4
o2
o2
o2
o2
n3.6
v0
v2
v2
v3
o2
o2
o2
o2
n5.31
v0
v2
v2
v4
o2
o2
o2
o2
n0.86
v0
v2
v3
v3
o2
o2
o2
o2
n1.37
v0
v4
v4
v4
o2
o2
o2
o2
n6.52
v1
v1
v1
v1
o2
o2
o2
o2
n9.98
v1
v1
v1
v2
o2
o2
o2
o2
n8.17
v1
v1
v1
v3
o2
o2
o2
o2
n0.94
v1
v1
v1
v4
o2
o2
o2
o2
n8.18
v1
v1
v2
v3
o2
o2
o2
o2
n2.9
v1
v1
v2
v4
o2
o2
o2
o2
n0.53
v1
v1
v3
v4
o16
o2
o2
o2
o2
n7.34
v1
v1
v4
v4
o2
o2
o2
o2
n9.24
v1
v2
v2
v2
o2
o2
o2
o2
n6.8
v1
v2
v2
v3
o2
o2
o2
o2
n4.89
v1
v2
v3
v3
o2
o2
o2
o2
n6.4
v1
v2
v3
v4
o2
o2
o2
o2
n0.97
v1
v3
v3
v3
o16
o2
o2
o2
o2
n2.76
v1
v3
v3
v4
o2
o2
o2
o2
n6.31
v1
v3
v4
v4
o2
o2
o2
o2
n9.31
v1
v4
v4
v4
o2
o2
o2
o2
n5.53
v2
v2
v3
v3
o16
o2
o2
o2
o2
n2.07
v2
v3
v4
v4
o2
o2
o2
o2
n3.76
v2
v4
v4
v4
o2
o2
o2
o2
n5.04
v3
v3
v3
v3
o2
o2
o2
o2
n7.37
v3
v3
v3
v4
o2
o2
o2
o2
n9.16
v3
v4
v4
v4
o2
o2
o2
o2
o2
n7.2
v0
v0
v0
v0
v0
o2
o2
o2
o2
o2
n3.94
v0
v0
v0
v0
v1
o2
o2
o2
o2
o2
n5.91
v0
v0
v0
v0
v2
o16
o2
o2
o2
o2
o2
n5.87
v0
v0
v0
v0
v3
o2
o2
o2
o2
o2
n5.9
v0
v0
v0
v0
v4
o2
o2
o2
o2
o2
n2.61
v0
v0
v0
v1
v2
o2
o2
o2
o2
o2
n9.52
v0
v0
v0
v1
v4
o16
o2
o2
o2
o2
o2
n6.99
v0
v0
v0
v2
v3
o2
o2
o2
o2
o2
n8
v0
v0
v0
v3
v3
o2
o2
o2
o2
o2
n0.07
v0
v0
v0
v4
v4
o2
o2
o2
o2
o2
n0.71
v0
v0
v1
v1
v2
o2
o2
o2
o2
o2
n7.01
v0
v0
v1
v1
v4
o16
o2
o2
o2
o2
o2
n1.35
v0
v0
v1
v2
v2
o2
o2
o2
o2
o2
n5.14
v0
v0
v1
v2
v3
o2
o2
o2
o2
o2
n2.56
v0
v0
v1
v2
v4
o2
o2
o2
o2
o2
n8.08
v0
v0
v1
v3
v3
o16
o2
o2
o2
o2
o2
n5.56
v0
v0
v1
v3
v4
o2
o2
o2
o2
o2
n5.03
v0
v0
v1
v4
v4
o2
o2
o2
o2
o2
n6.41
v0
v0
v2
v2
v2
o16
o2
o2
o2
o2
o2
n9.33
v0
v0
v2
v2
v3
o16
o2
o2
o2
o2
o2
n5.34
v0
v0
v2
v2
v4
o2
o2
o2
o2
o2
n5.28
v0
v0
v2
v3
v3
o2
o2
o2
o2
o2
n0.85
v0
v0
v2
v3
v4
o2
o2
o2
o2
o2
n7.36
v0
v0
v2
v4
v4
o2
o2
o2
o2
o2
n5.05
v0
v0
v3
v4
v4
o2
o2
o2
o2
o2
n0.84
v0
v1
v1
v1
v2
o2
o2
o2
o2
o2
n1.85
v0
v1
v1
v1
v3
o2
o2
o2
o2
o2
n7.96
v0
v1
v1
v2
v2
o16
o2
o2
o2
o2
o2
n4.52
v0
v1
v1
v2
v3
o2
o2
o2
o2
o2
n8.5
v0
v1
v1
v2
v4
o2
o2
o2
o2
o2
n4.25
v0
v1
v1
v3
v3
o2
o2
o2
o2
o2
n9.17
v0
v1
v2
v2
v4
o2
o2
o2
o2
o2
n6.16
v0
v1
v3
v4
v4
o2
o2
o2
o2
o2
n0.49
v0
v1
v4
v4
v4
o2
o2
o2
o2
o2
n4.46
v0
v2
v2
v2
v2
o2
o2
o2
o2
o2
n5.51
v0
v2
v2
v3
v4
o2
o2
o2
o2
o2
n3.22
v0
v2
v2
v4
v4
o2
o2
o2
o2
o2
n9.36
v0
v2
v3
v3
v4
o2
o2
o2
o2
o2
n4.36
v0
v2
v3
v4
v4
o2
o2
o2
o2
o2
n3.51
v0
v2
v4
v4
v4
o2
o2
o2
o2
o2
n9.4
v0
v3
v4
v4
v4
o2
o2
o2
o2
o2
n4.14
v1
v1
v1
v1
v1
o2
o2
o2
o2
o2
n6.55
v1
v1
v1
v1
v3
o2
o2
o2
o2
o2
n8.41
v1
v1
v1
v1
v4
o2
o2
o2
o2
o2
n9.68
v1
v1
v1
v2
v3
o2
o2
o2
o2
o2
n7.73
v1
v1
v1
v3
v3
o2
o2
o2
o2
o2
n0.76
v1
v1
v1
v3
v4
o2
o2
o2
o2
o2
n2.25
v1
v1
v1
v4
v4
o16
o2
o2
o2
o2
o2
n2.34
v1
v1
v2
v2
v3
o2
o2
o2
o2
o2
n5.46
v1
v1
v2
v2
v4
o2
o2
o2
o2
o2
n1.55
v1
v1
v2
v4
v4
o2
o2
o2
o2
o2
n3.06
v1
v1
v3
v3
v3
o2
o2
o2
o2
o2
n2.33
v1
v1
v3
v3
v4
o2
o2
o2
o2
o2
n5.08
v1
v2
v2
v2
v4
o2
o2
o2
o2
o2
n7.28
v1
v2
v2
v3
v4
o2
o2
o2
o2
o2
n5.42
v1
v3
v3
v3
v3
o2
o2
o2
o2
o2
n5.83
v1
v3
v3
v4
v4
o2
o2
o2
o2
o2
n7.8
v1
v4
v4
v4
v4
o2
o2
o2
o2
o2
n0.25
v2
v2
v2
v2
v4
o2
o2
o2
o2
o2
n2.17
v2
v2
v2
v3
v3
o2
o2
o2
o2
o2
n6.03
v2
v2
v2
v3
v4
o16
o2
o2
o2
o2
o2
n0.72
v2
v2
v3
v3
v3
o2
o2
o2
o2
o2
n8.22
v2
v2
v3
v3
v4
o16
o2
o2
o2
o2
o2
n7.44
v2
v3
v4
v4
v4
o2
o2
o2
o2
o2
n0.27
v2
v4
v4
v4
v4
o2
o2
o2
o2
o2
n0.45
v3
v3
v3
v4
v4
C4
n0
C5
n0
O0 0
o54
392
o2
o2
n8.01
v0
v0
o2
o2
n7.79
v0
v2
o16
o2
o2
n1.53
v0
v3
o2
o2
n4.7
v2
v2
o16
o2
o2
n3.04
v2
v4
o2
o2
n2.5
v3
v4
o2
o2
o2
n4.78
v0
v0
v0
o2
o2
o2
n3.61
v0
v0
v1
o2
o2
o2
n9.02
v0
v0
v3
o16
o2
o2
o2
n2.83
v0
v1
v2
o2
o2
o2
n7.77
v0
v2
v2
o2
o2
o2
n7.11
v0
v3
v3
o2
o2
o2
n2.96
v0
v3
v4
o2
o2
o2
n9.63
v0
v4
v4
o2
o2
o2
n6.17
v1
v1
v1
o2
o2
o2
n9.94
v1
v1
v2
o2
o2
o2
n1.95
v1
v1
v3
o2
o2
o2
n6.57
v1
v2
v2
o2
o2
o2
n3.89
v1
v2
v3
o2
o2
o2
n3.7
v1
v2
v4
o2
o2
o2
n7.35
v1
v3
v4
o16
o2
o2
o2
n8.53
v3
v3
v4
o2
o2
o2
n8
v4
v4
v4
o2
o2
o2
o2
n0.81
v0
v0
v0
v0
o2
o2
o2
o2
n0.32
v0
v0
v0
v1
o2
o2
o2
o2
n1.14
v0
v0
v0
v3
o2
o2
o2
o2
n4.85
v0
v0
v0
v4
o2
o2
o2
o2
n9.67
v0
v0
v1
v1
o2
o2
o2
o2
n8.61
v0
v0
v1
v3
o2
o2
o2
o2
n1.6
v0
v0
v1
v4
o2
o2
o2
o2
n7.44
v0
v0
v2
v4
o2
o2
o2
o2
n1.18
v0
v0
v3
v3
o2
o2
o2
o2
n4.52
v0
v0
v4
v4
o2
o2
o2
o2
n0.75
v0
v1
v1
v3
o2
o2
o2
o2
n4.06
v0
v1
v2
v4
o16
o2
o2
o2
o2
n6.34
v0
v1
v3
v3
o2
o2
o2
o2
n4.19
v0
v1
v4
v4
o2
o2
o2
o2
n6.4
v0
v2
v2
v3
o2
o2
o2
o2
n8.2
v0
v2
v2
v4
o2
o2
o2
o2
n5.27
v0
v2
v3
v3
o2
o2
o2
o2
n8.09
v0
v4
v4
v4
o2
o2
o2
o2
n7.89
v1
v1
v1
v1
o2
o2
o2
o2
n9.63
v1
v1
v1
v2
o2
o2
o2
o2
n7.37
v1
v1
v1
v3
o2
o2
o2
o2
n2.8
v1
v1
v1
v4
o2
o2
o2
o2
n1.92
v1
v1
v2
v3
o2
o2
o2
o2
n6.85
v1
v1
v2
v4
o2
o2
o2
o2
n2.78
v1
v1
v3
v4
o2
o2
o2
o2
n3.98
v1
v1
v4
v4
o2
o2
o2
o2
n9.61
v1
v2
v2
v2
o2
o2
o2
o2
n0.65
v1
v2
v2
v3
o16
o2
o2
o2
o2
n5.06
v1
v2
v3
v3
o2
o2
o2
o2
n0.66
v1
v2
v3
v4
o2
o2
o2
o2
n4.84
v1
v3
v3
v3
o2
o2
o2
o2
n9.04
v1
v3
v3
v4
o2
o2
o2
o2
n5.15
v1
v3
v4
v4
o2
o2
o2
o2
n0.75
v1
v4
v4
v4
o2
o2
o2
o2
n3.77
v2
v2
v3
v3
o2
o2
o2
o2
n3.38
v2
v3
v4
v4
o2
o2
o2
o2
n6.55
v2
v4
v4
v4
o2
o2
o2
o2
n7.77
v3
v3
v3
v3
o2
o2
o2
o2
n5.74
v3
v3
v3
v4
o16
o2
o2
o2
o2
n5.75
v3
v4
v4
v4
o2
o2
o2
o2
o2
n1.8
v0
v0
v0
v0
v0
o2
o2
o2
o2
o2
n8.89
v0
v0
v0
v0
v1
o16
o2
o2
o2
o2
o2
n5.26
v0
v0
v0
v0
v2
o2
o2
o2
o2
o2
n7.57
v0
v0
v0
v0
v3
o2
o2
o2
o2
o2
n0.12
v0
v0
v0
v0
v4
o2
o2
o2
o2
o2
n4.15
v0
v0
v0
v1
v2
o2
o2
o2
o2
o2
n5.4
v0
v0
v0
v1
v4
o2
o2
o2
o2
o2
n9.53
v0
v0
v0
v2
v3
o2
o2
o2
o2
o2
n6.41
v0
v0
v0
v3
v3
o2
o2
o2
o2
o2
n7.01
v0
v0
v0
v4
v4
o2
o2
o2
o2
o2
n2.29
v0
v0
v1
v1
v2
o2
o2
o2
o2
o2
n2.66
v0
v0
v1
v1
v4
o2
o2
o2
o2
o2
n1.4
v0
v0
v1
v2
v2
o2
o2
o2
o2
o2
n6.08
v0
v0
v1
v2
v3
o2
o2
o2
o2
o2
n1.01
v0
v0
v1
v2
v4
o2
o2
o2
o2
o2
n0.78
v0
v0
v1
v3
v3
o2
o2
o2
o2
o2
n3.12
v0
v0
v1
v3
v4
o2
o2
o2
o2
o2
n8.14
v0
v0
v1
v4
v4
o2
o2
o2
o2
o2
n2.62
v0
v0
v2
v2
v2
o2
o2
o2
o2
o2
n4.06
v0
v0
v2
v2
v3
o2
o2
o2
o2
o2
n9.62
v0
v0
v2
v2
v4
o2
o2
o2
o2
o2
n2.37
v0
v0
v2
v3
v3
o2
o2
o2
o2
o2
n2.46
v0
v0
v2
v3
v4
o2
o2
o2
o2
o2
n3.97
v0
v0
v2
v4
v4
o16
o2
o2
o2
o2
o2
n2.84
v0
v0
v3
v4
v4
o2
o2
o2
o2
o2
n5.92
v0
v1
v1
v1
v2
o2
o2
o2
o2
o2
n9.78
v0
v1
v1
v1
v3
o2
o2
o2
o2
o2
n9.37
v0
v1
v1
v2
v2
o16
o2
o2
o2
o2
o2
n3.89
v0
v1
v1
v2
v3
o2
o2
o2
o2
o2
n0.59
v0
v1
v1
v2
v4
o2
o2
o2
o2
o2
n8.52
v0
v1
v1
v3
v3
o2
o2
o2
o2
o2
n3.92
v0
v1
v2
v2
v4
o2
o2
o2
o2
o2
n9.44
v0
v1
v3
v4
v4
o2
o2
o2
o2
o2
n0.91
v0
v1
v4
v4
v4
o2
o2
o2
o2
o2
n9.4
v0
v2
v2
v2
v2
o2
o2
o2
o2
o2
n4.67
v0
v2
v2
v3
v4
o2
o2
o2
o2
o2
n9.43
v0
v2
v2
v4
v4
o2
o2
o2
o2
o2
n3.34
v0
v2
v3
v3
v4
o2
o2
o2
o2
o2
n3.19
v0
v2
v3
v4
v4
o2
o2
o2
o2
o2
n1.99
v0
v2
v4
v4
v4
o2
o2
o2
o2
o2
n6.03
v0
v3
v4
v4
v4
o16
o2
o2
o2
o2
o2
n6.81
v1
v1
v1
v1
v1
o2
o2
o2
o2
o2
n5.36
v1
v1
v1
v1
v3
o2
o2
o2
o2
o2
n0.71
v1
v1
v1
v1
v4
o2
o2
o2
o2
o2
n3.82
v1
v1
v1
v2
v3
o2
o2
o2
o2
o2
n4.48
v1
v1
v1
v3
v3
o2
o2
o2
o2
o2
n1.85
v1
v1
v1
v3
v4
o2
o2
o2
o2
o2
n2.43
v1
v1
v1
v4
v4
o2
o2
o2
o2
o2
n1.24
v1
v1
v2
v2
v3
o2
o2
o2
o2
o2
n6.71
v1
v1
v2
v2
v4
o2
o2
o2
o2
o2
n6.14
v1
v1
v2
v4
v4
o2
o2
o2
o2
o2
n9.23
v1
v1
v3
v3
v3
o2
o2
o2
o2
o2
n3.26
v1
v1
v3
v3
v4
o2
o2
o2
o2
o2
n5.39
v1
v2
v2
v2
v4
o2
o2
o2
o2
o2
n7.59
v1
v2
v2
v3
v4
o2
o2
o2
o2
o2
n8.53
v1
v3
v3
v3
v3
o2
o2
o2
o2
o2
n5.39
v1
v3
v3
v4
v4
o2
o2
o2
o2
o2
n9.35
v1
v4
v4
v4
v4
o2
o2
o2
o2
o2
n0.99
v2
v2
v2
v2
v4
o2
o2
o2
o2
o2
n9.18
v2
v2
v2
v3
v3
o2
o2
o2
o2
o2
n8.81
v2
v2
v2
v3
v4
o2
o2
o2
o2
o2
n1.22
v2
v2
v3
v3
v3
o2
o2
o2
o2
o2
n7.4
v2
v2
v3
v3
v4
o2
o2
o2
o2
o2
n8.92
v2
v3
v4
v4
v4
o2
o2
o2
o2
o2
n6.84
v2
v4
v4
v4
v4
o2
o2
o2
o2
o2
n5.36
v3
v3
v3
v4
v4
o2
o2
o2
o2
o2
o2
n6.21
v0
v0
v0
v0
v0
v2
o2
o2
o2
o2
o2
o2
n2.94
v0
v0
v0
v0
v0
v4
o16
o2
o2
o2
o2
o2
o2
n2.64
v0
v0
v0
v0
v1
v1
o16
o2
o2
o2
o2
o2
o2
n7.16
v0
v0
v0
v0
v1
v2
o2
o2
o2
o2
o2
o2
n8.46
v0
v0
v0
v0
v2
v2
o2
o2
o2
o2
o2
o2
n3.82
v0
v0
v0
v0
v2
v3
o16
o2
o2
o2
o2
o2
o2
n8.14
v0
v0
v0
v0
v3
v3
o2
o2
o2
o2
o2
o2
n3.52
v0
v0
v0
v1
v1
v2
o2
o2
o2
o2
o2
o2
n1.41
v0
v0
v0
v1
v1
v4
o2
o2
o2
o2
o2
o2
n2.61
v0
v0
v0
v1
v2
v2
o2
o2
o2
o2
o2
o2
n4.27
v0
v0
v0
v1
v2
v3
o2
o2
o2
o2
o2
o2
n4.63
v0
v0
v0
v1
v2
v4
o2
o2
o2
o2
o2
o2
n4.37
v0
v0
v0
v1
v3
v3
o2
o2
o2
o2
o2
o2
n1.27
v0
v0
v0
v1
v3
v4
o2
o2
o2
o2
o2
o2
n2.37
v0
v0
v0
v1
v4
v4
o2
o2
o2
o2
o2
o2
n6.99
v0
v0
v0
v2
v3
v3
o2
o2
o2
o2
o2
o2
n5.76
v0
v0
v0
v2
v3
v4
o2
o2
o2
o2
o2
o2
n6.26
v0
v0
v0
v3
v3
v3
o2
o2
o2
o2
o2
o2
n6.87
v0
v0
v1
v1
v1
v2
o2
o2
o2
o2
o2
o2
n7.61
v0
v0
v1
v1
v1
v3
o2
o2
o2
o2
o2
o2
n1.42
v0
v0
v1
v1
v1
v4
o2
o2
o2
o2
o2
o2
n3.42
v0
v0
v1
v1
v2
v2
o2
o2
o2
o2
o2
o2
n9.31
v0
v0
v1
v1
v2
v3
o2
o2
o2
o2
o2
o2
n9.59
v0
v0
v1
v1
v2
v4
o2
o2
o2
o2
o2
o2
n4.21
v0
v0
v1
v1
v4
v4
o2
o2
o2
o2
o2
o2
n4.14
v0
v0
v1
v2
v2
v4
o2
o2
o2
o2
o2
o2
n3.45
v0
v0
v1
v2
v3
v3
o2
o2
o2
o2
o2
o2
n8.82
v0
v0
v1
v2
v4
v4
o2
o2
o2
o2
o2
o2
n4.8
v0
v0
v1
v3
v3
v4
o2
o2
o2
o2
o2
o2
n2.72
v0
v0
v1
v4
v4
v4
o2
o2
o2
o2
o2
o2
n1.76
v0
v0
v2
v2
v2
v3
o2
o2
o2
o2
o2
o2
n2.03
v0
v0
v2
v2
v2
v4
o2
o2
o2
o2
o2
o2
n3.77
v0
v0
v2
v2
v3
v3
o2
o2
o2
o2
o2
o2
n4.99
v0
v0
v2
v4
v4
v4
o2
o2
o2
o2
o2
o2
n3.12
v0
v0
v3
v3
v3
v4
o2
o2
o2
o2
o2
o2
n6.02
v0
v0
v3
v3
v4
v4
o2
o2
o2
o2
o2
o2
n4.9
v0
v0
v4
v4
v4
v4
o2
o2
o2
o2
o2
o2
n8.22
v0
v1
v1
v1
v1
v1
o2
o2
o2
o2
o2
o2
n1.74
v0
v1
v1
v1
v1
v2
o2
o2
o2
o2
o2
o2
n8.17
v0
v1
v1
v1
v1
v3
o2
o2
o2
o2
o2
o2
n9.76
v0
v1
v1
v1
v1
v4
o16
o2
o2
o2
o2
o2
o2
n2.22
v0
v1
v1
v1
v2
v2
o2
o2
o2
o2
o2
o2
n7.38
v0
v1
v1
v1
v2
v4
o2
o2
o2
o2
o2
o2
n8.22
v0
v1
v1
v1
v4
v4
o2
o2
o2
o2
o2
o2
n3.52
v0
v1
v1
v2
v2
v2
o2
o2
o2
o2
o2
o2
n1.78
v0
v1
v1
v2
v2
v3
o2
o2
o2
o2
o2
o2
n6.77
v0
v1
v1
v2
v3
v3
o2
o2
o2
o2
o2
o2
n1.25
v0
v1
v1
v2
v3
v4
o2
o2
o2
o2
o2
o2
n2.04
v0
v1
v1
v3
v3
v3
o2
o2
o2
o2
o2
o2
n0.24
v0
v1
v1
v3
v3
v4
o2
o2
o2
o2
o2
o2
n6.33
v0
v1
v1
v3
v4
v4
o2
o2
o2
o2
o2
o2
n1.96
v0
v1
v2
v2
v3
v3
o2
o2
o2
o2
o2
o2
n0.15
v0
v1
v2
v2
v3
v4
o2
o2
o2
o2
o2
o2
n4.38
v0
v1
v2
v2
v4
v4
o2
o2
o2
o2
o2
o2
n6.1
v0
v1
v3
v3
v4
v4
o2
o2
o2
o2
o2
o2
n0.17
v0
v1
v3
v4
v4
v4
o2
o2
o2
o2
o2
o2
n1.26
v0
v2
v2
v2
v2
v3
o2
o2
o2
o2
o2
o2
n0.62
v0
v2
v2
v3
v3
v3
o2
o2
o2
o2
o2
o2
n4.93
v0
v2
v2
v3
v3
v4
o2
o2
o2
o2
o2
o2
n7.56
v0
v2
v2
v3
v4
v4
o2
o2
o2
o2
o2
o2
n8.18
v0
v2
v2
v4
v4
v4
o2
o2
o2
o2
o2
o2
n2.3
v0
v2
v3
v3
v3
v3
o2
o2
o2
o2
o2
o2
n6.96
v0
v2
v3
v3
v4
v4
o2
o2
o2
o2
o2
o2
n5.71
v0
v4
v4
v4
v4
v4
o2
o2
o2
o2
o2
o2
n5.15
v1
v1
v1
v1
v1
v1
o2
o2
o2
o2
o2
o2
n8.42
v1
v1
v1
v1
v1
v2
o2
o2
o2
o2
o2
o2
n9.26
v1
v1
v1
v1
v1
v3
o2
o2
o2
o2
o2
o2
n5.33
v1
v1
v1
v1
v1
v4
o2
o2
o2
o2
o2
o2
n1.21
v1
v1
v1
v1
v2
v2
o2
o2
o2
o2
o2
o2
n3.42
v1
v1
v1
v1
v3
v4
o16
o2
o2
o2
o2
o2
o2
n0.84
v1
v1
v1
v2
v2
v2
o16
o2
o2
o2
o2
o2
o2
n6.8
v1
v1
v1
v2
v2
v3
o2
o2
o2
o2
o2
o2
n4.72
v1
v1
v1
v2
v2
v4
o2
o2
o2
o2
o2
o2
n8.39
v1
v1
v1
v2
v3
v3
o2
o2
o2
o2
o2
o2
n2.77
v1
v1
v1
v2
v4
v4
o2
o2
o2
o2
o2
o2
n1.89
v1
v1
v1
v3
v4
v4
o2
o2
o2
o2
o2
o2
n9.24
v1
v1
v2
v2
v2
v4
o2
o2
o2
o2
o2
o2
n3.43
v1
v1
v2
v2
v3
v4
o2
o2
o2
o2
o2
o2
n9.7
v1
v1
v2
v2
v4
v4
o2
o2
o2
o2
o2
o2
n6.78
v1
v1
v2
v3
v3
v3
o16
o2
o2
o2
o2
o2
o2
n0.54
v1
v1
v3
v4
v4
v4
o2
o2
o2
o2
o2
o2
n1.26
v1
v2
v2
v2
v2
v2
o2
o2
o2
o2
o2
o2
n2.51
v1
v2
v2
v2
v2
v4
o2
o2
o2
o2
o2
o2
n6.35
v1
v2
v2
v2
v4
v4
o2
o2
o2
o2
o2
o2
n4.96
v1
v2
v3
v3
v3
v4
o2
o2
o2
o2
o2
o2
n2.13
v1
v2
v3
v3
v4
v4
o2
o2
o2
o2
o2
o2
n2.25
v1
v2
v4
v4
v4
v4
o2
o2
o2
o2
o2
o2
n9.62
v1
v3
v3
v3
v3
v3
o2
o2
o2
o2
o2
o2
n8.96
v1
v3
v3
v3
v3
v4
o2
o2
o2
o2
o2
o2
n9.94
v2
v2
v2
v2
v3
v3
o2
o2
o2
o2
o2
o2
n5.39
v2
v2
v2
v2
v3
v4
o16
o2
o2
o2
o2
o2
o2
n6.58
v2
v2
v2
v2
v4
v4
o2
o2
o2
o2
o2
o2
n9.97
v2
v2
v2
v3
v3
v4
o2
o2
o2
o2
o2
o2
n9.63
v2
v2
v2
v3
v4
v4
o2
o2
o2
o2
o2
o2
n0.18
v2
v2
v2
v4
v4
v4
o2
o2
o2
o2
o2
o2
n6.17
v2
v2
v3
v3
v4
v4
o2
o2
o2
o2
o2
o2
n8.42
v2
v2
v4
v4
v4
v4
o2
o2
o2
o2
o2
o2
n5.81
v2
v3
v3
v3
v4
v4
o2
o2
o2
o2
o2
o2
n4.44
v2
v3
v3
v4
v4
v4
o2
o2
o2
o2
o2
o2
n5.51
v3
v4
v4
v4
v4
v4
o2
o2
o2
o2
o2
o2
n1.07
v4
v4
v4
v4
v4
v4
o2
o2
o2
o2
o2
o2
o2
n2.64
v0
v0
v0
v0
v0
v0
v2
o2
o2
o2
o2
o2
o2
o2
n4.43
v0
v0
v0
v0
v0
v0
v3
o2
o2
o2
o2
o2
o2
o2
n0.46
v0
v0
v0
v0
v0
v1
v1
o2
o2
o2
o2
o2
o2
o2
n5.61
v0
v0
v0
v0
v0
v1
v2
o2
o2
o2
o2
o2
o2
o2
n4.96
v0
v0
v0
v0
v0
v1
v4
o2
o2
o2
o2
o2
o2
o2
n5.07
v0
v0
v0
v0
v0
v2
v3
o2
o2
o2
o2
o2
o2
o2
n7.31
v0
v0
v0
v0
v0
v2
v4
o2
o2
o2
o2
o2
o2
o2
n6.46
v0
v0
v0
v0
v0
v3
v3
o16
o2
o2
o2
o2
o2
o2
o2
n0.69
v0
v0
v0
v0
v0
v3
v4
o2
o2
o2
o2
o2
o2
o2
n1.41
v0
v0
v0
v0
v1
v1
v1
o2
o2
o2
o2
o2
o2
o2
n5.87
v0
v0
v0
v0
v1
v1
v4
o2
o2
o2
o2
o2
o2
o2
n1.83
v0
v0
v0
v0
v1
v2
v2
o2
o2
o2
o2
o2
o2
o2
n4.43
v0
v0
v0
v0
v1
v2
v3
o2
o2
o2
o2
o2
o2
o2
n1.28
v0
v0
v0
v0
v1
v2
v4
o2
o2
o2
o2
o2
o2
o2
n3.67
v0
v0
v0
v0
v1
v3
v3
o2
o2
o2
o2
o2
o2
o2
n2.04
v0
v0
v0
v0
v1
v3
v4
o2
o2
o2
o2
o2
o2
o2
n2.39
v0
v0
v0
v0
v2
v2
v3
o2
o2
o2
o2
o2
o2
o2
n9.28
v0
v0
v0
v0
v2
v3
v3
o2
o2
o2
o2
o2
o2
o2
n1.48
v0
v0
v0
v0
v2
v4
v4
o2
o2
o2
o2
o2
o2
o2
n9.13
v0
v0
v0
v0
v3
v3
v3
o16
o2
o2
o2
o2
o2
o2
o2
n8.47
v0
v0
v0
v0
v3
v3
v4
o2
o2
o2
o2
o2
o2
o2
n1.94
v0
v0
v0
v0
v3
v4
v4
o2
o2
o2
o2
o2
o2
o2
n0.06
v0
v0
v0
v1
v1
v1
v1
o16
o2
o2
o2
o2
o2
o2
o2
n7.62
v0
v0
v0
v1
v1
v2
v3
o2
o2
o2
o2
o2
o2
o2
n1.69
v0
v0
v0
v1
v1
v2
v4
o2
o2
o2
o2
o2
o2
o2
n4.19
v0
v0
v0
v1
v1
v3
v4
o2
o2
o2
o2
o2
o2
o2
n8.21
v0
v0
v0
v1
v2
v2
v2
o2
o2
o2
o2
o2
o2
o2
n6.63
v0
v0
v0
v1
v2
v2
v4
o2
o2
o2
o2
o2
o2
o2
n4.78
v0
v0
v0
v1
v2
v3
v3
o2
o2
o2
o2
o2
o2
o2
n7.04
v0
v0
v0
v1
v2
v3
v4
o2
o2
o2
o2
o2
o2
o2
n1.97
v0
v0
v0
v1
v3
v3
v3
o2
o2
o2
o2
o2
o2
o2
n3.18
v0
v0
v0
v1
v3
v3
v4
o2
o2
o2
o2
o2
o2
o2
n4.12
v0
v0
v0
v1
v4
v4
v4
o2
o2
o2
o2
o2
o2
o2
n6.53
v0
v0
v0
v2
v2
v2
v2
o2
o2
o2
o2
o2
o2
o2
n5.16
v0
v0
v0
v2
v2
v3
v3
o2
o2
o2
o2
o2
o2
o2
n6.75
v0
v0
v0
v2
v2
v4
v4
o2
o2
o2
o2
o2
o2
o2
n0.79
v0
v0
v0
v2
v3
v4
v4
o16
o2
o2
o2
o2
o2
o2
o2
n3.92
v0
v0
v0
v3
v3
v3
v3
o16
o2
o2
o2
o2
o2
o2
o2
n1.14
v0
v0
v0
v3
v4
v4
v4
o2
o2
o2
o2
o2
o2
o2
n5.14
v0
v0
v1
v1
v1
v1
v3
o2
o2
o2
o2
o2
o2
o2
n3.03
v0
v0
v1
v1
v1
v3
v3
o2
o2
o2
o2
o2
o2
o2
n7.16
v0
v0
v1
v1
v1
v3
v4
o2
o2
o2
o2
o2
o2
o2
n5.81
v0
v0
v1
v1
v3
v3
v3
o2
o2
o2
o2
o2
o2
o2
n1.48
v0
v0
v1
v1
v3
v3
v4
o2
o2
o2
o2
o2
o2
o2
n9.85
v0
v0
v1
v1
v3
v4
v4
o2
o2
o2
o2
o2
o2
o2
n3.54
v0
v0
v1
v1
v4
v4
v4
o2
o2
o2
o2
o2
o2
o2
n1.85
v0
v0
v1
v2
v2
v2
v4
o2
o2
o2
o2
o2
o2
o2
n2.59
v0
v0
v1
v2
v4
v4
v4
o16
o2
o2
o2
o2
o2
o2
o2
n5.88
v0
v0
v1
v3
v3
v3
v4
o2
o2
o2
o2
o2
o2
o2
n3.69
v0
v0
v1
v3
v3
v4
v4
o2
o2
o2
o2
o2
o2
o2
n4.28
v0
v0
v1
v4
v4
v4
v4
o2
o2
o2
o2
o2
o2
o2
n8.57
v0
v0
v2
v2
v2
v2
v3
o2
o2
o2
o2
o2
o2
o2
n7.55
v0
v0
v2
v2
v2
v3
v4
o16
o2
o2
o2
o2
o2
o2
o2
n6.73
v0
v0
v2
v2
v3
v3
v3
o2
o2
o2
o2
o2
o2
o2
n7.15
v0
v0
v2
v2
v3
v3
v4
o2
o2
o2
o2
o2
o2
o2
n3.56
v0
v0
v2
v3
v3
v3
v3
o2
o2
o2
o2
o2
o2
o2
n0.44
v0
v0
v2
v3
v3
v3
v4
o2
o2
o2
o2
o2
o2
o2
n6.74
v0
v0
v2
v3
v3
v4
v4
o2
o2
o2
o2
o2
o2
o2
n1.61
v0
v0
v2
v4
v4
v4
v4
o2
o2
o2
o2
o2
o2
o2
n7.85
v0
v0
v3
v3
v3
v3
v3
o2
o2
o2
o2
o2
o2
o2
n7.92
v0
v0
v3
v3
v3
v4
v4
o2
o2
o2
o2
o2
o2
o2
n0.43
v0
v0
v3
v3
v4
v4
v4
o2
o2
o2
o2
o2
o2
o2
n5.1
v0
v1
v1
v1
v1
v1
v1
o2
o2
o2
o2
o2
o2
o2
n1.22
v0
v1
v1
v1
v1
v2
v2
o2
o2
o2
o2
o2
o2
o2
n1.06
v0
v1
v1
v1
v1
v2
v3
o2
o2
o2
o2
o2
o2
o2
n6.13
v0
v1
v1
v1
v1
v3
v4
o2
o2
o2
o2
o2
o2
o2
n1.95
v0
v1
v1
v1
v3
v3
v4
o2
o2
o2
o2
o2
o2
o2
n7.45
v0
v1
v1
v1
v4
v4
v4
o2
o2
o2
o2
o2
o2
o2
n9.71
v0
v1
v1
v2
v2
v2
v2
o2
o2
o2
o2
o2
o2
o2
n3.94
v0
v1
v1
v2
v2
v2
v4
o2
o2
o2
o2
o2
o2
o2
n5.04
v0
v1
v1
v2
v2
v3
v3
o2
o2
o2
o2
o2
o2
o2
n0.2
v0
v1
v1
v2
v4
v4
v4
o2
o2
o2
o2
o2
o2
o2
n4.93
v0
v1
v1
v3
v3
v4
v4
o2
o2
o2
o2
o2
o2
o2
n7.19
v0
v1
v1
v3
v4
v4
v4
o2
o2
o2
o2
o2
o2
o2
n8.87
v0
v1
v1
v4
v4
v4
v4
o2
o2
o2
o2
o2
o2
o2
n0.05
v0
v1
v2
v2
v2
v2
v3
o2
o2
o2
o2
o2
o2
o2
n2.61
v0
v1
v2
v2
v2
v2
v4
o2
o2
o2
o2
o2
o2
o2
n5.16
v0
v1
v2
v2
v2
v3
v3
o2
o2
o2
o2
o2
o2
o2
n3.8
v0
v1
v2
v2
v2
v3
v4
o2
o2
o2
o2
o2
o2
o2
n2.8
v0
v1
v2
v2
v3
v4
v4
o2
o2
o2
o2
o2
o2
o2
n8.33
v0
v1
v2
v2
v4
v4
v4
o2
o2
o2
o2
o2
o2
o2
n6.99
v0
v1
v2
v3
v3
v3
v3
o2
o2
o2
o2
o2
o2
o2
n1.57
v0
v1
v2
v3
v3
v3
v4
o2
o2
o2
o2
o2
o2
o2
n9.11
v0
v1
v2
v3
v3
v4
v4
o2
o2
o2
o2
o2
o2
o2
n3.53
v0
v1
v3
v3
v3
v3
v3
o2
o2
o2
o2
o2
o2
o2
n6.88
v0
v1
v3
v3
v3
v4
v4
o2
o2
o2
o2
o2
o2
o2
n2.02
v0
v2
v2
v2
v2
v2
v2
o2
o2
o2
o2
o2
o2
o2
n5.23
v0
v2
v2
v2
v2
v2
v3
o2
o2
o2
o2
o2
o2
o2
n2.85
v0
v2
v2
v2
v2
v4
v4
o2
o2
o2
o2
o2
o2
o2
n0.57
v0
v2
v2
v2
v3
v3
v4
o2
o2
o2
o2
o2
o2
o2
n1.15
v0
v2
v2
v3
v3
v3
v3
o2
o2
o2
o2
o2
o2
o2
n5.16
v0
v2
v2
v3
v3
v4
v4
o2
o2
o2
o2
o2
o2
o2
n2.83
v0
v2
v3
v3
v3
v3
v3
o2
o2
o2
o2
o2
o2
o2
n3
v0
v2
v3
v3
v4
v4
v4
o2
o2
o2
o2
o2
o2
o2
n0.34
v0
v3
v3
v3
v3
v3
v3
o2
o2
o2
o2
o2
o2
o2
n3.89
v0
v3
v3
v3
v3
v4
v4
o2
o2
o2
o2
o2
o2
o2
n1.69
v0
v3
v4
v4
v4
v4
v4
o2
o2
o2
o2
o2
o2
o2
n7.24
v0
v4
v4
v4
v4
v4
v4
o16
o2
o2
o2
o2
o2
o2
o2
n6.86
v1
v1
v1
v1
v1
v1
v1
o2
o2
o2
o2
o2
o2
o2
n2.04
v1
v1
v1
v1
v1
v1
v2
o2
o2
o2
o2
o2
o2
o2
n0.58
v1
v1
v1
v1
v1
v2
v3
o2
o2
o2
o2
o2
o2
o2
n4.75
v1
v1
v1
v1
v1
v3
v4
o2
o2
o2
o2
o2
o2
o2
n5.66
v1
v1
v1
v1
v1
v4
v4
o2
o2
o2
o2
o2
o2
o2
n1.6
v1
v1
v1
v1
v2
v2
v2
o16
o2
o2
o2
o2
o2
o2
o2
n5.86
v1
v1
v1
v1
v2
v2
v4
o2
o2
o2
o2
o2
o2
o2
n6.77
v1
v1
v1
v1
v2
v3
v3
o2
o2
o2
o2
o2
o2
o2
n2.34
v1
v1
v1
v1
v2
v3
v4
o2
o2
o2
o2
o2
o2
o2
n3.11
v1
v1
v1
v1
v3
v3
v3
o16
o2
o2
o2
o2
o2
o2
o2
n2.81
v1
v1
v1
v1
v3
v4
v4
o2
o2
o2
o2
o2
o2
o2
n7.02
v1
v1
v1
v1
v4
v4
v4
o2
o2
o2
o2
o2
o2
o2
n7.42
v1
v1
v1
v2
v2
v2
v3
o2
o2
o2
o2
o2
o2
o2
n3.86
v1
v1
v1
v2
v2
v2
v4
o2
o2
o2
o2
o2
o2
o2
n0.45
v1
v1
v1
v2
v2
v4
v4
o2
o2
o2
o2
o2
o2
o2
n5.67
v1
v1
v1
v2
v3
v4
v4
o16
o2
o2
o2
o2
o2
o2
o2
n1.86
v1
v1
v1
v2
v4
v4
v4
o2
o2
o2
o2
o2
o2
o2
n7.56
v1
v1
v1
v3
v3
v4
v4
o2
o2
o2
o2
o2
o2
o2
n7.75
v1
v1
v2
v2
v2
v2
v4
o2
o2
o2
o2
o2
o2
o2
n4.52
v1
v1
v2
v2
v2
v3
v4
o2
o2
o2
o2
o2
o2
o2
n3.82
v1
v1
v2
v2
v2
v4
v4
o2
o2
o2
o2
o2
o2
o2
n5.09
v1
v1
v2
v2
v3
v3
v4
o2
o2
o2
o2
o2
o2
o2
n0.91
v1
v1
v2
v2
v3
v4
v4
o2
o2
o2
o2
o2
o2
o2
n3.46
v1
v1
v2
v2
v4
v4
v4
o2
o2
o2
o2
o2
o2
o2
n6.62
v1
v1
v2
v3
v3
v4
v4
o16
o2
o2
o2
o2
o2
o2
o2
n6.62
v1
v1
v2
v3
v4
v4
v4
o2
o2
o2
o2
o2
o2
o2
n2.09
v1
v1
v2
v4
v4
v4
v4
o2
o2
o2
o2
o2
o2
o2
n8.11
v1
v1
v3
v3
v3
v3
v3
o2
o2
o2
o2
o2
o2
o2
n8.07
v1
v1
v3
v3
v4
v4
v4
o2
o2
o2
o2
o2
o2
o2
n4.89
v1
v1
v3
v4
v4
v4
v4
o2
o2
o2
o2
o2
o2
o2
n9.24
v1
v1
v4
v4
v4
v4
v4
o2
o2
o2
o2
o2
o2
o2
n8.87
v1
v2
v2
v2
v2
v2
v3
o2
o2
o2
o2
o2
o2
o2
n0.93
v1
v2
v2
v2
v2
v2
v4
o16
o2
o2
o2
o2
o2
o2
o2
n9.81
v1
v2
v2
v2
v2
v3
v4
o2
o2
o2
o2
o2
o2
o2
n7.24
v1
v2
v2
v2
v2
v4
v4
o2
o2
o2
o2
o2
o2
v1
v2
v2
v2
v3
v3
v3
o2
o2
o2
o2
o2
o2
o2
n4.67
v1
v2
v2
v2
v3
v3
v4
o2
o2
o2
o2
o2
o2
o2
n4.28
v1
v2
v2
v2
v3
v4
v4
o2
o2
o2
o2
o2
o2
o2
n0.29
v1
v2
v3
v3
v3
v4
v4
o2
o2
o2
o2
o2
o2
o2
n6.14
v1
v2
v4
v4
v4
v4
v4
o2
o2
o2
o2
o2
o2
o2
n8.5
v1
v3
v3
v3
v3
v3
v3
o2
o2
o2
o2
o2
o2
o2
n1.23
v1
v3
v3
v3
v3
v4
v4
o2
o2
o2
o2
o2
o2
o2
n5.54
v2
v2
v2
v2
v2
v2
v3
o2
o2
o2
o2
o2
o2
o2
n4.99
v2
v2
v2
v2
v2
v2
v4
o2
o2
o2
o2
o2
o2
o2
n5.62
v2
v2
v2
v2
v2
v3
v4
o2
o2
o2
o2
o2
o2
o2
n1.96
v2
v2
v2
v2
v2
v4
v4
o2
o2
o2
o2
o2
o2
o2
n7.98
v2
v2
v2
v2
v3
v3
v3
o2
o2
o2
o2
o2
o2
o2
n1.24
v2
v2
v2
v2
v3
v3
v4
o2
o2
o2
o2
o2
o2
o2
n8.71
v2
v2
v2
v2
v3
v4
v4
o2
o2
o2
o2
o2
o2
o2
n5.74
v2
v2
v2
v2
v4
v4
v4
o2
o2
o2
o2
o2
o2
o2
n6.56
v2
v2
v2
v3
v4
v4
v4
o2
o2
o2
o2
o2
o2
o2
n6.78
v2
v2
v3
v3
v3
v3
v4
o16
o2
o2
o2
o2
o2
o2
o2
n6.71
v2
v2
v3
v3
v3
v4
v4
o2
o2
o2
o2
o2
o2
o2
n0.57
v2
v2
v3
v3
v4
v4
v4
o2
o2
o2
o2
o2
o2
o2
n1.58
v2
v2
v4
v4
v4
v4
v4
o16
o2
o2
o2
o2
o2
o2
o2
n8.13
v2
v3
v3
v3
v3
v3
v3
o2
o2
o2
o2
o2
o2
o2
n2.81
v2
v3
v3
v3
v3
v4
v4
o2
o2
o2
o2
o2
o2
o2
n5.29
v2
v3
v3
v3
v4
v4
v4
o2
o2
o2
o2
o2
o2
o2
n3.32
v2
v3
v3
v4
v4
v4
v4
o16
o2
o2
o2
o2
o2
o2
o2
n4.16
v2
v3
v4
v4
v4
v4
v4
o2
o2
o2
o2
o2
o2
o2
n3.72
v2
v4
v4
v4
v4
v4
v4
o2
o2
o2
o2
o2
o2
o2
n2.89
v3
v3
v3
v3
v3
v3
v3
o2
o2
o2
o2
o2
o2
o2
n1.93
v3
v3
v3
v4
v4
v4
v4
o2
o2
o2
o2
o2
o2
o2
n5.01
v3
v3
v4
v4
v4
v4
v4
k4
6
12
18
24
J0 5
0 9.11
1 4.52
2 7.7
3 1.6
4 2.97
J1 5
0 8.22
1 2.54
2 0.29
3 3.07
4 -9.9
J2 5
0 0.48
1 5.47
2 3.59
3 3.64
4 4.36
J3 5
0 9.72
1 1.5
2 8.83
3 9.78
4 7.48
J4 5
0 -4.66
1 8.73
2 9.85
3 9.5
4 9.97
J5 5
0 4.11
1 6.84
2 2.36
3 -9.49
4 9.24
G0 5
0 1.13
1 3.93
2 3.67
3 7.01
4 9.82
